n = 100;
C = 26579;
w = [418,139,712,71,197,319,629,997,119,987,103,749,228,942,327,214,374,466,880,108,154,909,681,576,872,985,276,414,838,781,826,630,678,474,276,92,731,303,467,512,184,477,641,590,193,35,901,583,976,251,380,942,361,915,187,684,767,398,5,700,477,120,931,304,117,350,863,426,748,627,160,444,604,612,530,552,145,845,411,873,917,481,910,785,564,943,60,528,416,679,798,659,622,945,188,610,232,751,434,873];
p = [481,113,641,149,243,301,702,1005,181,1004,40,744,181,929,403,291,327,528,906,143,147,861,597,476,844,1076,374,513,857,752,904,727,761,397,211,93,696,248,450,562,141,442,718,542,124,-64,936,587,989,167,348,949,316,850,219,671,736,421,44,671,438,114,941,325,203,399,909,409,790,542,223,379,654,709,589,650,181,925,455,815,860,459,1007,809,599,932,113,615,349,714,749,737,563,953,268,600,176,695,354,931];
